
Gurobi 6.0.2 (win64) logging started 06/11/15 21:10:24

Warning: unknown variable 'kDash_dN' in bounds section
Read LP format model from file C:\MT\repository\VRPTWMS\instances\mip\toCalculate\TestInstance2Freight_No_11.lp
Reading time = 0.00 seconds
(null): 73 rows, 54 columns, 237 nonzeros
Optimize a model with 73 rows, 54 columns and 237 nonzeros
Model has 39 quadratic constraints
WARNING: Only barrier available for SOCP models
Coefficient statistics:
  Matrix range    [1e+00, 1e+03]
  Objective range [1e+00, 1e+03]
  Bounds range    [1e+00, 1e+03]
  RHS range       [1e+00, 1e+03]
Presolve removed 27 rows and 16 columns
Presolve time: 0.00s
Presolved: 137 rows, 88 columns, 523 nonzeros
Variable types: 41 continuous, 47 integer (32 binary)
Found heuristic solution: objective 3006.0000000
Optimize a model with 137 rows, 88 columns and 523 nonzeros
Coefficient statistics:
  Matrix range    [1e+00, 1e+02]
  Objective range [1e+00, 1e+03]
  Bounds range    [1e+00, 1e+02]
  RHS range       [1e+00, 1e+02]
Presolve removed 4 rows and 4 columns
Presolved: 133 rows, 85 columns, 503 nonzeros


Root relaxation: objective 1.005500e+03, 28 iterations, 0.00 seconds

    Nodes    |    Current Node    |     Objective Bounds      |     Work
 Expl Unexpl |  Obj  Depth IntInf | Incumbent    BestBd   Gap | It/Node Time

     0     0 1005.50000    0    9 3006.00000 1005.50000  66.6%     -    0s
     0     0 1006.00000    0   22 3006.00000 1006.00000  66.5%     -    0s
     0     0 1035.10949    0   26 3006.00000 1035.10949  65.6%     -    0s
     0     0 1044.19358    0   33 3006.00000 1044.19358  65.3%     -    0s
     0     0 1071.32825    0   33 3006.00000 1071.32825  64.4%     -    0s
     0     0 1071.32825    0   33 3006.00000 1071.32825  64.4%     -    0s
     0     0 1071.32825    0   32 3006.00000 1071.32825  64.4%     -    0s
     0     0 1071.32825    0   32 3006.00000 1071.32825  64.4%     -    0s
     0     0 1071.32825    0   32 3006.00000 1071.32825  64.4%     -    0s
     0     0 1071.32825    0   20 3006.00000 1071.32825  64.4%     -    0s
H    0     0                    2007.0000000 1071.32825  46.6%     -    0s
     0     0 2005.00000    0    3 2007.00000 2005.00000  0.10%     -    0s
     0     0 2005.50000    0   11 2007.00000 2005.50000  0.07%     -    0s
     0     0 2005.60000    0   17 2007.00000 2005.60000  0.07%     -    0s

Cutting planes:
  Gomory: 2
  Cover: 2
  Implied bound: 1
  Clique: 2
  MIR: 1
  Flow cover: 1
  Zero half: 1

Explored 0 nodes (191 simplex iterations) in 0.04 seconds
Thread count was 2 (of 4 available processors)

Optimal solution found (tolerance 1.00e-04)
Best objective 2.007000000000e+03, best bound 2.007000000000e+03, gap 0.0%
k_c1	40.0
k_c2	40.0
k_c3	40.0
k_dN	-0.0
kDash_c1	-0.0
kDash_c2	-0.0
kDash_c3	0.0
kDash_dN	-0.0
o_1	-0.0
o_2	-0.0
o_3	-0.0
p_1	1.0
p_2	-0.0
p_3	1.0
phi_c1	759.0
phi_c2	20.0
phi_c3	909.9999999999998
phi_d0	1000.0
phi_dN	-0.0
tauD_c1	49.0
tauD_c2	78.0
tauD_c3	20.0
tauD_d0	-0.0
tauD_dN	100.0
tauS_c1	49.0
tauS_c2	81.0
tauS_c3	30.0
tauS_d0	-0.0
tauS_dN	78.0
x_c1_c2	1.0
x_c2_dN	1.0
x_c3_c1	1.0
x_d0_c3	1.0
z_c1_dN	1.0
z_c3_c1	1.0
z_d0_c3	1.0
